(set-option :print-success false)
(set-logic QF_UF)
(declare-sort x119 0)
(declare-sort x71 0)
(declare-fun x8 (x71 x71) x71)
(declare-fun x145 () x71)
(declare-fun x101 () x71)
(declare-fun x29 () x71)
(declare-fun x68 () x71)
(declare-fun x64 () x71)
(declare-fun x125 (x71 x71) x71)
(assert (let ((x23 (x125 x145 x145)) (x61 (x125 x64 x68)) (x157 (x125 x68 x68)) (x108 (x125 x64 x64)) (x5 (x125 x145 x101)) (x54 (x125 x29 x64)) (x128 (x125 x145 x68)) (x135 (x125 x29 x145)) (x115 (x125 x101 x64)) (x77 (x125 x64 x145)) (x106 (x125 x64 x29)) (x147 (x125 x101 x101)) (x17 (x125 x29 x101)) (x104 (x125 x101 x29)) (x40 (x125 x68 x145)) (x76 (x125 x29 x29)) (x55 (x125 x29 x68)) (x73 (x125 x145 x29)) (x87 (x125 x68 x101)) (x91 (x125 x64 x101)) (x150 (x125 x101 x145)) (x75 (x125 x145 x64)) (x96 (x125 x68 x29)) (x124 (x125 x101 x68)) (x46 (x125 x68 x64))) (and (or (= (x125 x23 x23) x145) (or (= (x125 x73 x73) x29) (or (or (= (x125 x128 x128) x68) (= (x125 x5 x5) x101)) (= x64 (x125 x75 x75))))) (and (and (or (or (= (x125 x106 x106) x29) (or (or (= (x125 x91 x91) x101) (= (x125 x61 x61) x68)) (= x64 (x125 x108 x108)))) (= x145 (x125 x77 x77))) (and (or (= x145 (x125 x150 x150)) (or (= (x125 x104 x104) x29) (or (or (= x68 (x125 x124 x124)) (= x101 (x125 x147 x147))) (= x64 (x125 x115 x115))))) (or (= x145 (x125 x40 x40)) (or (= x29 (x125 x96 x96)) (or (or (= (x125 x157 x157) x68) (= (x125 x87 x87) x101)) (= (x125 x46 x46) x64)))))) (or (or (= x29 (x125 x76 x76)) (or (or (= (x125 x17 x17) x101) (= x68 (x125 x55 x55))) (= (x125 x54 x54) x64))) (= x145 (x125 x135 x135)))))))
(assert (or (= (x125 x145 x145) x145) (or (= (x125 x29 x29) x29) (or (= (x125 x64 x64) x64) (or (= x68 (x125 x68 x68)) (= (x125 x101 x101) x101))))))
(assert (let ((x104 (x125 x29 x29)) (x150 (x125 x145 x145)) (x115 (x125 x64 x64)) (x124 (x125 x68 x68)) (x147 (x125 x101 x101))) (or (and (not (= x145 x150)) (and (not (= x104 x145)) (and (and (not (= x147 x145)) (not (= x145 x124))) (not (= x145 x115))))) (or (or (and (not (= x64 x150)) (and (and (and (not (= x64 x147)) (not (= x124 x64))) (not (= x64 x115))) (not (= x64 x104)))) (or (and (not (= x150 x68)) (and (and (not (= x115 x68)) (and (not (= x124 x68)) (not (= x68 x147)))) (not (= x104 x68)))) (and (and (and (not (= x101 x115)) (and (not (= x101 x147)) (not (= x124 x101)))) (not (= x104 x101))) (not (= x101 x150))))) (and (not (= x29 x150)) (and (not (= x104 x29)) (and (not (= x29 x115)) (and (not (= x147 x29)) (not (= x29 x124))))))))))
(assert (let ((x3 (x125 x68 x68)) (x85 (x125 x29 x68)) (x52 (x125 x29 x64)) (x58 (x125 x101 x68)) (x74 (x125 x101 x101)) (x31 (x125 x145 x29)) (x123 (x125 x64 x101)) (x132 (x125 x68 x29)) (x155 (x125 x64 x29)) (x13 (x125 x145 x101)) (x79 (x125 x64 x145)) (x69 (x125 x68 x145)) (x93 (x125 x145 x64)) (x92 (x125 x64 x64)) (x94 (x125 x145 x145)) (x6 (x125 x29 x145)) (x53 (x125 x101 x64)) (x89 (x125 x68 x64)) (x20 (x125 x29 x29)) (x51 (x125 x64 x68)) (x105 (x125 x101 x29)) (x70 (x125 x68 x101)) (x144 (x125 x145 x68)) (x97 (x125 x101 x145)) (x82 (x125 x29 x101))) (let ((x150 (not (= x101 x123))) (x108 (not (= x101 x132))) (x59 (not (= x13 x145))) (x112 (not (= x68 x89))) (x19 (not (= x70 x68))) (x95 (not (= x64 x93))) (x124 (not (= x70 x101))) (x75 (not (= x101 x31))) (x106 (not (= x52 x101))) (x136 (not (= x105 x29))) (x9 (not (= x3 x68))) (x25 (not (= x64 x94))) (x142 (not (= x93 x29))) (x44 (not (= x68 x97))) (x5 (not (= x93 x101))) (x139 (not (= x155 x68))) (x42 (not (= x68 x82))) (x128 (not (= x79 x101))) (x103 (not (= x89 x64))) (x151 (not (= x68 x74))) (x129 (not (= x64 x97))) (x45 (not (= x64 x52))) (x41 (not (= x53 x29))) (x134 (not (= x3 x29))) (x86 (not (= x31 x145))) (x61 (not (= x85 x101))) (x143 (not (= x68 x20))) (x39 (not (= x123 x64))) (x149 (not (= x92 x64))) (x126 (not (= x52 x29))) (x133 (not (= x74 x145))) (x46 (not (= x89 x101))) (x147 (not (= x74 x101))) (x55 (not (= x101 x13))) (x120 (not (= x85 x64))) (x158 (not (= x64 x69))) (x117 (not (= x64 x79))) (x146 (not (= x68 x52))) (x107 (not (= x74 x64))) (x56 (not (= x3 x145))) (x84 (not (= x70 x64))) (x111 (not (= x74 x29))) (x91 (not (= x101 x105))) (x88 (not (= x105 x64))) (x98 (not (= x29 x144))) (x33 (not (= x82 x145))) (x96 (not (= x92 x101))) (x50 (not (= x29 x69))) (x16 (not (= x144 x68))) (x140 (not (= x94 x68))) (x57 (not (= x64 x58))) (x34 (not (= x6 x29))) (x60 (not (= x97 x145))) (x18 (not (= x89 x29))) (x23 (not (= x101 x94))) (x131 (not (= x6 x64))) (x36 (not (= x53 x145))) (x148 (not (= x64 x20))) (x109 (not (= x85 x68))) (x65 (not (= x64 x51))) (x26 (not (= x68 x13))) (x32 (not (= x68 x132))) (x10 (not (= x29 x51))) (x27 (not (= x145 x70))) (x138 (not (= x64 x13))) (x156 (not (= x51 x68))) (x76 (not (= x101 x144))) (x2 (not (= x105 x145))) (x17 (not (= x101 x20))) (x154 (not (= x64 x3))) (x90 (not (= x145 x69))) (x35 (not (= x29 x92))) (x48 (not (= x145 x89))) (x122 (not (= x51 x145))) (x49 (not (= x85 x145))) (x113 (not (= x145 x94))) (x1 (not (= x145 x58))) (x38 (not (= x29 x94))) (x87 (not (= x53 x101))) (x100 (not (= x29 x31))) (x141 (not (= x82 x29))) (x43 (not (= x29 x155))) (x37 (not (= x144 x145))) (x121 (not (= x31 x64))) (x7 (not (= x145 x123))) (x63 (not (= x13 x29))) (x4 (not (= x68 x79))) (x47 (not (= x132 x29))) (x130 (not (= x79 x145))) (x102 (not (= x68 x92))) (x159 (not (= x29 x58))) (x80 (not (= x68 x69))) (x54 (not (= x101 x97))) (x15 (not (= x53 x64))) (x62 (not (= x64 x144))) (x30 (not (= x53 x68))) (x153 (not (= x105 x68))) (x99 (not (= x20 x29))) (x14 (not (= x145 x93))) (x77 (not (= x155 x101))) (x67 (not (= x31 x68))) (x110 (not (= x64 x155))) (x83 (not (= x123 x68))) (x152 (not (= x64 x82))) (x21 (not (= x52 x145))) (x12 (not (= x97 x29))) (x40 (not (= x101 x82))) (x73 (not (= x101 x6))) (x24 (not (= x29 x85))) (x78 (not (= x145 x92))) (x11 (not (= x68 x93))) (x127 (not (= x132 x145))) (x135 (not (= x101 x69))) (x28 (not (= x68 x58))) (x66 (not (= x132 x64))) (x115 (not (= x101 x58))) (x137 (not (= x79 x29))) (x114 (not (= x68 x6))) (x157 (not (= x101 x51))) (x104 (not (= x101 x3))) (x22 (not (= x145 x20))) (x72 (not (= x6 x145))) (x81 (not (= x29 x123))) (x116 (not (= x155 x145))) (x118 (not (= x29 x70)))) (or (and (and (and (or x86 x72) (and (or x14 x130) (and (or x59 x60) (or x90 x37)))) (or x113 x113)) (and (and (and (and (or x116 x21) (and (and (or x7 x36) (or x122 x48)) (or x78 x78))) (or x14 x130)) (and (and (or x59 x60) (and (and (and (or x133 x133) (or x1 x27)) (or x7 x36)) (or x33 x2))) (and (or x90 x37) (and (or x127 x49) (and (and (or x27 x1) (or x56 x56)) (or x48 x122)))))) (and (or x86 x72) (and (or x22 x22) (and (and (or x127 x49) (or x2 x33)) (or x21 x116)))))) (or (or (or (and (and (and (or x73 x75) (and (and (or x106 x77) (and (or x61 x108) (or x91 x40))) (or x17 x17))) (and (and (and (or x54 x55) (and (and (and (or x147 x147) (or x124 x115)) (or x150 x87)) (or x40 x91))) (and (and (and (or x157 x46) (and (or x104 x104) (or x115 x124))) (or x108 x61)) (or x76 x135))) (and (and (or x106 x77) (and (and (or x157 x46) (or x150 x87)) (or x96 x96))) (or x128 x5)))) (and (or x23 x23) (and (and (or x128 x5) (and (or x55 x54) (or x76 x135))) (or x73 x75)))) (and (and (and (and (and (and (or x42 x153) (and (and (or x151 x151) (or x19 x28)) (or x30 x83))) (or x44 x26)) (and (and (and (and (or x9 x9) (or x28 x19)) (or x156 x112)) (or x32 x109)) (or x16 x80))) (and (or x11 x4) (and (and (or x102 x102) (and (or x83 x30) (or x156 x112))) (or x146 x139)))) (and (or x114 x67) (and (and (or x146 x139) (and (or x32 x109) (or x42 x153))) (or x143 x143)))) (and (or x140 x140) (and (and (or x11 x4) (and (or x16 x80) (or x26 x44))) (or x114 x67))))) (and (and (and (or x121 x131) (and (or x117 x95) (and (or x129 x138) (or x62 x158)))) (or x25 x25)) (and (and (and (or x117 x95) (and (and (and (or x103 x65) (or x39 x15)) (or x149 x149)) (or x110 x45))) (and (and (or x138 x129) (and (and (or x15 x39) (and (or x84 x57) (or x107 x107))) (or x88 x152))) (and (or x158 x62) (and (or x66 x120) (and (and (or x154 x154) (or x84 x57)) (or x103 x65)))))) (and (or x121 x131) (and (and (and (or x88 x152) (or x66 x120)) (or x45 x110)) (or x148 x148)))))) (and (and (and (or x100 x34) (and (or x99 x99) (and (or x43 x126) (and (or x47 x24) (or x136 x141))))) (and (and (and (and (or x24 x47) (and (and (or x118 x159) (or x134 x134)) (or x18 x10))) (or x50 x98)) (and (and (or x141 x136) (and (and (or x159 x118) (or x111 x111)) (or x81 x41))) (or x63 x12))) (and (or x142 x137) (and (or x126 x43) (and (or x35 x35) (and (or x41 x81) (or x10 x18))))))) (and (and (and (or x137 x142) (and (or x50 x98) (or x12 x63))) (or x34 x100)) (or x38 x38))))))))
(assert (and (= x145 (x125 x68 x64)) (and (= x29 (x125 x145 x101)) (and (= (x125 x68 x68) x101) (= (x125 x101 x68) x64)))))
(assert (not (and (and (= x68 (x125 x145 x29)) (and (and (= x145 (x125 x145 x68)) (and (= x29 (x125 x145 x101)) (and (= x64 (x125 x29 x145)) (and (= (x125 x29 x29) x101) (and (= x68 (x125 x29 x64)) (and (and (and (= x145 (x125 x64 x145)) (and (= (x125 x64 x29) x29) (and (= (x125 x64 x64) x101) (and (and (= x64 (x125 x64 x101)) (and (and (and (and (= x101 (x125 x68 x68)) (and (and (= (x125 x101 x145) x68) (and (and (= x29 (x125 x101 x64)) (and (= x64 (x125 x101 x68)) (= (x125 x101 x101) x101))) (= (x125 x101 x29) x145))) (= (x125 x68 x101) x68))) (= x145 (x125 x68 x64))) (= x64 (x125 x68 x29))) (= (x125 x68 x145) x29))) (= (x125 x64 x68) x68))))) (= (x125 x29 x101) x145)) (= (x125 x29 x68) x29))))))) (= (x125 x145 x64) x64))) (= (x125 x145 x145) x101))))
(assert (let ((x128 (x125 x68 x145)) (x151 (x125 x145 x68)) (x103 (x125 x145 x29)) (x12 (x125 x145 x145)) (x150 (x125 x101 x29)) (x87 (x125 x101 x145)) (x69 (x125 x64 x64)) (x96 (x125 x64 x101)) (x115 (x125 x101 x68)) (x135 (x125 x68 x64)) (x124 (x125 x101 x101)) (x5 (x125 x68 x29)) (x104 (x125 x101 x64)) (x40 (x125 x29 x101)) (x84 (x125 x29 x29)) (x57 (x125 x29 x145)) (x92 (x125 x29 x64)) (x102 (x125 x145 x64)) (x83 (x125 x64 x145)) (x46 (x125 x68 x101)) (x91 (x125 x145 x101)) (x74 (x125 x29 x68)) (x76 (x125 x68 x68)) (x144 (x125 x64 x29)) (x23 (x125 x64 x68))) (let ((x82 (= x29 x76)) (x159 (= x145 x144)) (x139 (= x29 x69)) (x13 (= x145 x115)) (x17 (= x115 x101)) (x59 (= x91 x145)) (x56 (= x128 x64)) (x89 (= x101 x135)) (x155 (= x96 x64)) (x16 (= x74 x101)) (x127 (= x128 x29)) (x100 (= x68 x12)) (x24 (= x101 x57)) (x7 (= x83 x64)) (x94 (= x40 x68)) (x146 (= x29 x135)) (x95 (= x29 x144)) (x33 (= x29 x102)) (x134 (= x145 x84)) (x36 (= x64 x57)) (x65 (= x68 x84)) (x112 (= x68 x69)) (x118 (= x145 x5)) (x21 (= x29 x83)) (x156 (= x135 x68)) (x15 (= x144 x68)) (x63 (= x68 x103)) (x50 (= x68 x128)) (x66 (= x5 x64)) (x73 (= x76 x68)) (x11 (= x150 x101)) (x136 (= x83 x101)) (x53 (= x64 x76)) (x158 (= x5 x29)) (x138 (= x74 x29)) (x49 (= x87 x29)) (x143 (= x23 x145)) (x80 (= x101 x92)) (x9 (= x104 x101)) (x99 (= x68 x102)) (x67 (= x144 x101)) (x137 (= x57 x68)) (x147 (= x101 x124)) (x43 (= x151 x68)) (x72 (= x57 x145)) (x98 (= x87 x68)) (x47 (= x101 x12)) (x28 (= x101 x96)) (x109 (= x29 x23)) (x60 (= x151 x145)) (x31 (= x135 x145)) (x142 (= x68 x83)) (x79 (= x64 x104)) (x26 (= x69 x145)) (x88 (= x64 x92)) (x110 (= x84 x64)) (x117 (= x29 x84)) (x77 (= x46 x101)) (x62 (= x29 x150)) (x45 (= x144 x64)) (x55 (= x76 x101)) (x10 (= x102 x101)) (x93 (= x135 x64)) (x126 (= x91 x68)) (x3 (= x23 x101)) (x70 (= x115 x64)) (x114 (= x101 x84)) (x152 (= x74 x64)) (x61 (= x124 x64)) (x130 (= x128 x145)) (x6 (= x104 x145)) (x22 (= x29 x12)) (x108 (= x29 x124)) (x120 (= x150 x64)) (x81 (= x101 x91)) (x148 (= x40 x29)) (x38 (= x64 x151)) (x18 (= x103 x101)) (x75 (= x68 x115)) (x4 (= x101 x5)) (x140 (= x74 x68)) (x129 (= x29 x92)) (x58 (= x64 x46)) (x149 (= x64 x40)) (x78 (= x151 x29)) (x25 (= x92 x145)) (x106 (= x145 x124)) (x41 (= x101 x151)) (x121 (= x145 x40)) (x27 (= x103 x64)) (x86 (= x145 x83)) (x48 (= x29 x91)) (x85 (= x68 x23)) (x1 (= x64 x87)) (x132 (= x96 x68)) (x51 (= x69 x101)) (x14 (= x87 x145)) (x30 (= x104 x68)) (x153 (= x96 x29)) (x157 (= x68 x124)) (x141 (= x128 x101)) (x32 (= x104 x29)) (x97 (= x145 x46)) (x35 (= x101 x87)) (x42 (= x69 x64)) (x131 (= x145 x74)) (x107 (= x68 x92)) (x154 (= x150 x68)) (x2 (= x103 x29)) (x113 (= x145 x12)) (x90 (= x145 x103)) (x122 (= x12 x64)) (x123 (= x29 x46)) (x34 (= x64 x91)) (x133 (= x64 x102)) (x116 (= x29 x57)) (x54 (= x68 x46)) (x52 (= x23 x64)) (x19 (= x76 x145)) (x37 (= x145 x102)) (x20 (= x96 x145)) (x44 (= x101 x40)) (x111 (= x150 x145)) (x39 (= x5 x68)) (x105 (= x115 x29))) (and (and (and (and (and (and (and (or (or (or x153 (or x123 x108)) x148) x48) (or (or (or x32 (or x105 x108)) x62) x49)) (and (and (or (or x120 (or (or x70 x61) x79)) x1) (or (or x149 (or (or x61 x58) x155)) x34)) (and (and (or x98 (or x154 (or (or x157 x75) x30))) (or (or (or (or x157 x54) x132) x94) x126)) (and (or (or x44 (or x28 (or x77 x147))) x81) (or (or x11 (or (or x17 x147) x9)) x35))))) (and (or (or (or x6 (or x106 x13)) x111) x14) (or (or x121 (or (or x97 x106) x20)) x59))) (and (and (or (or x118 (or x31 (or x19 x97))) x130) (or (or (or (or x13 x19) x143) x131) x60)) (and (and (and (or (or x152 (or (or x53 x70) x52)) x38) (or (or (or (or x53 x58) x93) x66) x56)) (and (and (or (or (or x3 (or x17 x55)) x16) x41) (or (or (or x89 (or x77 x55)) x4) x141)) (and (or x50 (or x39 (or x156 (or x73 x54)))) (or x43 (or (or x85 (or x73 x75)) x140))))) (and (or x127 (or x158 (or (or x123 x82) x146))) (or x78 (or (or (or x82 x105) x109) x138)))))) (and (and (or (or (or x26 (or x31 x6)) x25) x37) (or (or x159 (or (or x143 x20) x26)) x86)) (and (and (and (and (or (or x107 (or (or x30 x156) x112)) x99) (or (or (or x112 (or x132 x85)) x15) x142)) (and (or x10 (or (or (or x9 x89) x51) x80)) (or (or (or (or x3 x28) x51) x67) x136))) (and (or x7 (or (or (or x52 x155) x42) x45)) (or (or x88 (or (or x79 x93) x42)) x133))) (and (or (or (or (or x32 x146) x139) x129) x33) (or (or (or x139 (or x153 x109)) x95) x21))))) (and (and (or (or (or x25 (or x131 x121)) x134) x72) (or x90 (or x134 (or (or x111 x118) x159)))) (and (and (and (or x36 (or x110 (or x88 (or x152 x149)))) (or (or (or x45 (or x120 x66)) x110) x27)) (and (and (or x137 (or x65 (or (or x94 x140) x107))) (or (or x65 (or x15 (or x39 x154))) x63)) (and (or x24 (or x114 (or x80 (or x44 x16)))) (or x18 (or (or x67 (or x11 x4)) x114))))) (and (or (or (or x129 (or x138 x148)) x117) x116) (or x2 (or x117 (or x95 (or x62 x158)))))))) (and (and (or x113 (or (or (or x130 x14) x86) x72)) (or x113 (or x90 (or (or x59 x60) x37)))) (and (and (or (or (or (or x48 x78) x33) x2) x22) (or x22 (or x116 (or (or x49 x127) x21)))) (and (and (or x122 (or (or (or x56 x1) x7) x36)) (or (or (or (or x38 x34) x133) x27) x122)) (and (and (or x47 (or (or (or x35 x141) x136) x24)) (or x47 (or (or x10 (or x41 x81)) x18))) (and (or (or (or (or x50 x98) x142) x137) x100) (or (or x63 (or x99 (or x126 x43))) x100))))))))))
(assert (let ((x147 (x125 x101 (x125 x101 x101))) (x115 (x125 x64 (x125 x64 x64))) (x150 (x125 x145 (x125 x145 x145))) (x124 (x125 x68 (x125 x68 x68))) (x104 (x125 x29 (x125 x29 x29)))) (and (or (= x145 x150) (or (= x104 x145) (or (or (= x145 x147) (= x145 x124)) (= x145 x115)))) (and (or (or (= x29 x104) (or (or (= x124 x29) (= x147 x29)) (= x115 x29))) (= x29 x150)) (and (or (= x64 x150) (or (= x104 x64) (or (= x115 x64) (or (= x64 x147) (= x64 x124))))) (and (or (= x68 x150) (or (or (= x115 x68) (or (= x68 x147) (= x68 x124))) (= x104 x68))) (or (or (= x104 x101) (or (or (= x147 x101) (= x124 x101)) (= x101 x115))) (= x150 x101))))))))
(assert (let ((x106 (x125 x29 x68)) (x77 (x125 x29 x64)) (x128 (x125 x145 x68)) (x150 (x125 x101 x64)) (x108 (x125 x29 x101)) (x46 (x125 x64 x68)) (x115 (x125 x68 x101)) (x91 (x125 x68 x29)) (x147 (not (= (x125 x101 x101) x101))) (x124 (x125 x101 x68)) (x75 (x125 x145 x64)) (x23 (not (= (x125 x145 x145) x145))) (x17 (not (= x29 (x125 x29 x29)))) (x135 (x125 x29 x145)) (x157 (x125 x64 x101)) (x55 (x125 x101 x145)) (x5 (x125 x145 x101)) (x40 (x125 x101 x29)) (x61 (x125 x64 x29)) (x104 (not (= x68 (x125 x68 x68)))) (x76 (x125 x64 x145)) (x96 (not (= x64 (x125 x64 x64)))) (x87 (x125 x68 x64)) (x54 (x125 x68 x145)) (x73 (x125 x145 x29))) (or (and (and (and (not (= x29 x135)) (and (not (= x76 x64)) (and (not (= x101 x55)) (not (= x54 x68))))) x23) (and x23 (and (and (not (= x64 x75)) (and (not (= x101 x5)) (not (= x68 x128)))) (not (= x29 x73))))) (or (and (and (not (= x135 x145)) (and (and (and (not (= x101 x108)) (not (= x106 x68))) (not (= x64 x77))) x17)) (and (not (= x145 x73)) (and x17 (and (and (not (= x101 x40)) (not (= x68 x91))) (not (= x64 x61)))))) (or (and (and (not (= x145 x76)) (and (and (and (not (= x157 x101)) (not (= x68 x46))) x96) (not (= x29 x61)))) (and (not (= x145 x75)) (and (not (= x29 x77)) (and x96 (and (not (= x87 x68)) (not (= x101 x150))))))) (or (and (and (and (and (and (not (= x68 x124)) x147) (not (= x64 x150))) (not (= x40 x29))) (not (= x145 x55))) (and (and (and (not (= x64 x157)) (and (not (= x115 x68)) x147)) (not (= x29 x108))) (not (= x145 x5)))) (and (and (not (= x145 x128)) (and (not (= x29 x106)) (and (and x104 (not (= x124 x101))) (not (= x64 x46))))) (and (not (= x145 x54)) (and (and (and (not (= x115 x101)) x104) (not (= x87 x64))) (not (= x91 x29)))))))))))
(assert (let ((x147 (x125 x101 x101)) (x115 (x125 x64 x64)) (x150 (x125 x145 x145)) (x104 (x125 x29 x29)) (x124 (x125 x68 x68))) (and (and (and (and (= (x125 x124 x124) x124) (= (x125 x147 x147) x147)) (= (x125 x115 x115) x115)) (= (x125 x104 x104) x104)) (= (x125 x150 x150) x150))))
(assert (let ((x96 (x125 x29 x68)) (x73 (x125 x29 x145)) (x106 (x125 x29 x64)) (x46 (x125 x64 x68)) (x128 (x125 x68 x145)) (x150 (x125 x145 x101)) (x135 (x125 x145 x29)) (x76 (x125 x29 x29)) (x61 (x125 x68 x64)) (x75 (x125 x64 x145)) (x55 (x125 x68 x29)) (x108 (x125 x64 x64)) (x40 (x125 x145 x68)) (x104 (x125 x29 x101)) (x5 (x125 x101 x145)) (x115 (x125 x64 x101)) (x91 (x125 x101 x64)) (x87 (x125 x101 x68)) (x124 (x125 x68 x101)) (x17 (x125 x101 x29)) (x54 (x125 x64 x29)) (x23 (x125 x145 x145)) (x147 (x125 x101 x101)) (x77 (x125 x145 x64)) (x157 (x125 x68 x68))) (and (and (and (and (and (and (not (= x96 x40)) (and (and (not (= x46 x96)) (and (and (and (not (= x46 x157)) (and (not (= x40 x87)) (and (and (not (= x87 x157)) (not (= x46 x87))) (not (= x96 x87))))) (not (= x96 x157))) (not (= x40 x157)))) (not (= x46 x40)))) (and (and (not (= x150 x115)) (and (not (= x104 x115)) (and (not (= x124 x150)) (and (and (and (and (and (not (= x115 x147)) (not (= x147 x124))) (not (= x104 x147))) (not (= x147 x150))) (not (= x115 x124))) (not (= x124 x104)))))) (not (= x104 x150)))) (and (and (and (and (not (= x61 x77)) (and (and (not (= x108 x61)) (and (not (= x77 x91)) (and (and (not (= x91 x61)) (not (= x108 x91))) (not (= x91 x106))))) (not (= x106 x61)))) (not (= x108 x106))) (not (= x77 x108))) (not (= x106 x77)))) (and (and (and (and (and (not (= x76 x55)) (and (not (= x55 x54)) (and (not (= x17 x135)) (and (and (not (= x54 x17)) (not (= x17 x55))) (not (= x76 x17)))))) (not (= x135 x55))) (not (= x76 x54))) (not (= x135 x54))) (not (= x76 x135)))) (and (and (and (not (= x73 x75)) (and (and (and (not (= x128 x75)) (and (and (not (= x73 x5)) (and (not (= x5 x75)) (not (= x128 x5)))) (not (= x5 x23)))) (not (= x73 x128))) (not (= x128 x23)))) (not (= x75 x23))) (not (= x73 x23)))) (and (and (not (= x23 x135)) (and (not (= x23 x77)) (and (not (= x77 x135)) (and (not (= x40 x23)) (and (and (and (not (= x23 x150)) (and (and (not (= x40 x150)) (not (= x77 x150))) (not (= x150 x135)))) (not (= x77 x40))) (not (= x40 x135))))))) (and (and (and (not (= x54 x75)) (and (and (not (= x108 x54)) (and (and (not (= x54 x46)) (and (and (not (= x75 x115)) (and (not (= x54 x115)) (and (not (= x108 x115)) (not (= x46 x115))))) (not (= x46 x108)))) (not (= x46 x75)))) (not (= x108 x75)))) (and (and (not (= x128 x55)) (and (and (and (not (= x157 x128)) (and (not (= x157 x55)) (and (not (= x61 x157)) (and (not (= x128 x124)) (and (and (not (= x157 x124)) (not (= x124 x61))) (not (= x124 x55))))))) (not (= x55 x61))) (not (= x128 x61)))) (and (not (= x17 x5)) (and (and (not (= x91 x17)) (and (and (not (= x17 x87)) (and (and (and (and (not (= x87 x147)) (not (= x91 x147))) (not (= x17 x147))) (not (= x147 x5))) (not (= x87 x91)))) (not (= x5 x87)))) (not (= x91 x5)))))) (and (not (= x76 x73)) (and (not (= x73 x106)) (and (not (= x76 x106)) (and (not (= x73 x96)) (and (and (and (and (not (= x104 x76)) (and (not (= x104 x106)) (not (= x104 x96)))) (not (= x104 x73))) (not (= x96 x106))) (not (= x76 x96))))))))))))
(assert (and (or (or (or (or (= (x125 (x125 x145 x68) x145) x68) (= x101 (x125 (x125 x145 x101) x145))) (= (x125 (x125 x145 x64) x145) x64)) (= x29 (x125 (x125 x145 x29) x145))) (= (x125 (x125 x145 x145) x145) x145)) (and (or (= (x125 (x125 x29 x145) x29) x145) (or (or (= (x125 (x125 x29 x64) x29) x64) (or (= x68 (x125 (x125 x29 x68) x29)) (= x101 (x125 (x125 x29 x101) x29)))) (= x29 (x125 (x125 x29 x29) x29)))) (and (and (or (= x145 (x125 (x125 x68 x145) x68)) (or (= x29 (x125 (x125 x68 x29) x68)) (or (= x64 (x125 (x125 x68 x64) x68)) (or (= x101 (x125 (x125 x68 x101) x68)) (= x68 (x125 (x125 x68 x68) x68)))))) (or (or (= (x125 (x125 x101 x29) x101) x29) (or (= x64 (x125 (x125 x101 x64) x101)) (or (= x68 (x125 (x125 x101 x68) x101)) (= (x125 (x125 x101 x101) x101) x101)))) (= (x125 (x125 x101 x145) x101) x145))) (or (or (or (= x64 (x125 (x125 x64 x64) x64)) (or (= (x125 (x125 x64 x68) x64) x68) (= (x125 (x125 x64 x101) x64) x101))) (= (x125 (x125 x64 x29) x64) x29)) (= (x125 (x125 x64 x145) x64) x145))))))
(assert (or (and (not (= x145 (x125 x145 (x125 x145 x145)))) (and (not (= (x125 x29 (x125 x145 x29)) x145)) (and (and (not (= (x125 x68 (x125 x145 x68)) x145)) (not (= (x125 x101 (x125 x145 x101)) x145))) (not (= x145 (x125 x64 (x125 x145 x64))))))) (or (and (and (and (and (not (= x29 (x125 x68 (x125 x29 x68)))) (not (= x29 (x125 x101 (x125 x29 x101))))) (not (= (x125 x64 (x125 x29 x64)) x29))) (not (= (x125 x29 (x125 x29 x29)) x29))) (not (= x29 (x125 x145 (x125 x29 x145))))) (or (and (not (= (x125 x145 (x125 x64 x145)) x64)) (and (and (not (= x64 (x125 x64 (x125 x64 x64)))) (and (not (= (x125 x101 (x125 x64 x101)) x64)) (not (= (x125 x68 (x125 x64 x68)) x64)))) (not (= (x125 x29 (x125 x64 x29)) x64)))) (or (and (and (and (and (not (= x68 (x125 x68 (x125 x68 x68)))) (not (= (x125 x101 (x125 x68 x101)) x68))) (not (= x68 (x125 x64 (x125 x68 x64))))) (not (= (x125 x29 (x125 x68 x29)) x68))) (not (= x68 (x125 x145 (x125 x68 x145))))) (and (not (= x101 (x125 x145 (x125 x101 x145)))) (and (and (and (not (= (x125 x101 (x125 x101 x101)) x101)) (not (= x101 (x125 x68 (x125 x101 x68))))) (not (= x101 (x125 x64 (x125 x101 x64))))) (not (= x101 (x125 x29 (x125 x101 x29)))))))))))
(assert (and (not (= x29 x145)) (and (and (and (and (not (= x29 x68)) (and (and (and (not (= x29 x101)) (and (not (= x68 x101)) (not (= x101 x64)))) (not (= x145 x101))) (not (= x64 x68)))) (not (= x145 x68))) (not (= x29 x64))) (not (= x145 x64)))))
(assert (or (and (and (and (not (= (x125 (x125 x64 x145) x145) x64)) (and (not (= x101 (x125 (x125 x101 x145) x145))) (not (= x68 (x125 (x125 x68 x145) x145))))) (not (= (x125 (x125 x29 x145) x145) x29))) (not (= (x125 (x125 x145 x145) x145) x145))) (or (or (or (and (not (= x145 (x125 (x125 x145 x101) x101))) (and (and (and (not (= x101 (x125 (x125 x101 x101) x101))) (not (= (x125 (x125 x68 x101) x101) x68))) (not (= (x125 (x125 x64 x101) x101) x64))) (not (= (x125 (x125 x29 x101) x101) x29)))) (and (not (= x145 (x125 (x125 x145 x68) x68))) (and (not (= x29 (x125 (x125 x29 x68) x68))) (and (and (not (= (x125 (x125 x101 x68) x68) x101)) (not (= x68 (x125 (x125 x68 x68) x68)))) (not (= x64 (x125 (x125 x64 x68) x68))))))) (and (not (= (x125 (x125 x145 x64) x64) x145)) (and (not (= x29 (x125 (x125 x29 x64) x64))) (and (not (= x64 (x125 (x125 x64 x64) x64))) (and (not (= x101 (x125 (x125 x101 x64) x64))) (not (= x68 (x125 (x125 x68 x64) x64)))))))) (and (and (not (= x29 (x125 (x125 x29 x29) x29))) (and (and (not (= x68 (x125 (x125 x68 x29) x29))) (not (= (x125 (x125 x101 x29) x29) x101))) (not (= x64 (x125 (x125 x64 x29) x29))))) (not (= (x125 (x125 x145 x29) x29) x145))))))
(assert (let ((x61 (x125 x64 x68)) (x54 (x125 x29 x64)) (x46 (x125 x68 x64)) (x55 (x125 x29 x68)) (x135 (x125 x29 x145)) (x150 (x125 x101 x145)) (x40 (x125 x68 x145)) (x108 (x125 x64 x64)) (x5 (x125 x145 x101)) (x91 (x125 x64 x101)) (x104 (x125 x101 x29)) (x106 (x125 x64 x29)) (x76 (x125 x29 x29)) (x128 (x125 x145 x68)) (x17 (x125 x29 x101)) (x73 (x125 x145 x29)) (x77 (x125 x64 x145)) (x147 (x125 x101 x101)) (x87 (x125 x68 x101)) (x96 (x125 x68 x29)) (x75 (x125 x145 x64)) (x115 (x125 x101 x64)) (x157 (x125 x68 x68)) (x124 (x125 x101 x68)) (x23 (x125 x145 x145))) (and (and (and (and (and (and (and (and (or (or (or (= x147 x64) (or (= x147 x68) (= x147 x101))) (= x29 x147)) (= x147 x145)) (or (= x124 x145) (or (= x29 x124) (or (= x124 x64) (or (= x124 x101) (= x68 x124)))))) (or (or (or (= x115 x64) (or (= x115 x68) (= x101 x115))) (= x29 x115)) (= x145 x115))) (or (or (or (= x64 x104) (or (= x104 x101) (= x104 x68))) (= x104 x29)) (= x104 x145))) (or (= x150 x145) (or (or (= x64 x150) (or (= x68 x150) (= x101 x150))) (= x150 x29)))) (and (or (= x40 x145) (or (= x29 x40) (or (or (= x40 x68) (= x40 x101)) (= x64 x40)))) (and (and (or (or (= x29 x46) (or (= x64 x46) (or (= x46 x68) (= x101 x46)))) (= x145 x46)) (and (or (= x145 x157) (or (= x29 x157) (or (= x64 x157) (or (= x157 x101) (= x157 x68))))) (or (= x87 x145) (or (= x87 x29) (or (= x87 x64) (or (= x87 x101) (= x68 x87))))))) (or (or (= x29 x96) (or (= x64 x96) (or (= x68 x96) (= x101 x96)))) (= x96 x145))))) (and (or (or (or (= x64 x77) (or (= x101 x77) (= x77 x68))) (= x77 x29)) (= x145 x77)) (and (or (= x106 x145) (or (= x29 x106) (or (= x106 x64) (or (= x68 x106) (= x101 x106))))) (and (or (or (= x29 x108) (or (or (= x108 x68) (= x101 x108)) (= x108 x64))) (= x108 x145)) (and (or (or (or (or (= x61 x68) (= x61 x101)) (= x64 x61)) (= x61 x29)) (= x145 x61)) (or (= x145 x91) (or (or (= x91 x64) (or (= x68 x91) (= x91 x101))) (= x29 x91)))))))) (and (and (and (and (or (or (= x29 x55) (or (= x64 x55) (or (= x55 x101) (= x68 x55)))) (= x55 x145)) (or (or (= x29 x17) (or (= x17 x64) (or (= x17 x101) (= x17 x68)))) (= x145 x17))) (or (= x54 x145) (or (= x54 x29) (or (or (= x54 x68) (= x101 x54)) (= x64 x54))))) (or (= x76 x145) (or (or (or (= x76 x68) (= x76 x101)) (= x64 x76)) (= x76 x29)))) (or (= x135 x145) (or (or (= x64 x135) (or (= x135 x101) (= x68 x135))) (= x29 x135))))) (and (and (and (or (or (or (= x64 x75) (or (= x68 x75) (= x101 x75))) (= x29 x75)) (= x145 x75)) (and (or (or (= x29 x5) (or (= x5 x64) (or (= x5 x101) (= x5 x68)))) (= x145 x5)) (or (or (= x29 x128) (or (or (= x128 x101) (= x68 x128)) (= x64 x128))) (= x145 x128)))) (or (= x73 x145) (or (= x29 x73) (or (= x73 x64) (or (= x68 x73) (= x101 x73)))))) (or (= x23 x145) (or (or (or (= x68 x23) (= x23 x101)) (= x23 x64)) (= x29 x23)))))))
(check-sat)
(exit)
